Version identifier: 22.1.0.0 | 2022-03-09 | 1a383f8ce
CPXPARAM_Read_DataCheck                          1
1 of 1 MIP starts provided solutions.
MIP start 'm1' defined initial solution with objective 62.0000.
Tried aggregator 4 times.
MIP Presolve eliminated 96900 rows and 9026 columns.
MIP Presolve modified 1121 coefficients.
Aggregator did 90091 substitutions.
Reduced MIP has 9450 rows, 91719 columns, and 193082 nonzeros.
Reduced MIP has 91681 binaries, 38 generals, 0 SOSs, and 0 indicators.
Presolve time = 1.19 sec. (1254.97 ticks)
Tried aggregator 1 time.
Detecting symmetries...
Reduced MIP has 9450 rows, 91719 columns, and 193082 nonzeros.
Reduced MIP has 91681 binaries, 38 generals, 0 SOSs, and 0 indicators.
Presolve time = 0.20 sec. (148.04 ticks)
Probing fixed 58 vars, tightened 0 bounds.
Probing time = 0.37 sec. (39.39 ticks)
Clique table members: 185522.
MIP emphasis: balance optimality and feasibility.
MIP search method: dynamic search.
Parallel mode: deterministic, using up to 8 threads.
Root relaxation solution time = 0.88 sec. (670.37 ticks)

        Nodes                                         Cuts/
   Node  Left     Objective  IInf  Best Integer    Best Bound    ItCnt     Gap

*     0+    0                           62.0000        0.0000           100.00%
      0     0       38.4045  6939       62.0000       38.4045       25   38.06%
      0     0        cutoff             62.0000                     49    0.00%
Elapsed time = 7.06 sec. (5154.24 ticks, tree = 0.01 MB, solutions = 1)

Zero-half cuts applied:  10
Gomory fractional cuts applied:  24

Root node processing (before b&c):
  Real time             =    7.07 sec. (5160.72 ticks)
Parallel b&c, 8 threads:
  Real time             =    0.00 sec. (0.00 ticks)
  Sync time (average)   =    0.00 sec.
  Wait time (average)   =    0.00 sec.
                          ------------
Total (root+branch&cut) =    7.07 sec. (5160.72 ticks)
